code/experiments/eil51_sub/eil51_n12.tsp
NAME : eil51_n12
COMMENT : 12-city problem (Christofides/Eilon)
TYPE : TSP
DIMENSION : 12
EDGE_WEIGHT_TYPE : CEIL_2D
NODE_COORD_SECTION
1 49 49
2 31 62
3 51 21
4 27 23
5 62 42
6 16 57
7 43 67
8 38 46
9 61 33
10 45 35
11 48 28
12 56 37
EOF
