code/experiments/eil51_sub/eil51_n12.opt.tour
12
0 7 6 1 5 3 9 10 2 8 
11 4 
